2632528927008979414507,8,1,2,010,9,1,2,06,3,1,2,07,13,1,2,015,11,1,2,01,6,1,2,011,5,1,2,013,3,1,2,02,6,1,2,05,2,1,2,011,1,1,2,05,15,1,2,014,8,1,2,05,4,1,2,07,2,1,2,01,15,1,2,015,5,1,2,011,4,1,2,04,1,1,2,01,9,1,2,010,5,1,2,012,5,1,2,03,7,1,2,014,3,1,2,06,6,1,2,015,4,1,2,013,2,1,2,010,6,1,2,06,3,1,2,014,6,1,2,010,11,1,2,07,6,1,2,02,15,1,2,05,15,1,2,09,7,1,2,05,13,1,2,04,12,1,2,015,15,1,2,01,3,1,2,010,5,1,2,011,10,1,2,05,8,1,2,04,13,1,2,014,2,1,2,015,5,1,2,012,8,1,2,06,7,1,2,013,10,1,2,03,2,1,2,015,12,1,2,0